p tw 142 329
0 1
0 2
0 3
0 4
0 117
1 2
1 3
1 4
1 82
2 3
2 4
3 4
3 33
3 82
3 83
3 86
3 88
4 69
5 6
5 58
5 30
5 59
5 60
6 60
6 84
6 87
6 88
7 8
7 9
8 9
8 75
8 107
8 108
8 38
8 76
8 99
8 124
10 11
10 12
10 13
10 14
10 140
11 12
11 13
11 14
11 20
11 48
12 13
12 14
12 20
12 48
12 93
12 74
13 14
14 141
15 16
15 51
15 118
16 23
16 69
16 90
16 116
17 18
17 24
17 25
17 26
17 27
17 61
18 110
19 20
19 21
20 21
20 48
22 23
23 69
23 90
23 116
23 117
24 25
24 26
24 27
24 89
24 90
25 26
25 27
25 118
26 27
26 62
28 29
28 30
28 31
28 32
29 30
29 31
29 32
29 35
29 91
29 95
29 114
30 31
30 32
30 59
30 60
31 32
31 111
31 35
31 91
31 95
31 114
32 58
33 34
33 71
33 72
33 85
33 86
33 82
33 83
33 88
35 36
35 91
35 95
35 114
36 101
36 105
36 114
36 115
37 38
38 48
38 74
38 99
38 100
38 76
38 107
38 124
39 40
39 41
39 42
39 43
39 44
39 96
40 41
40 42
40 43
40 44
40 62
40 96
40 109
40 110
41 42
41 43
41 44
41 63
41 122
41 138
41 139
42 43
42 44
42 63
43 44
43 56
44 53
44 54
44 55
44 56
45 46
45 47
46 47
46 49
46 50
46 105
46 121
47 103
47 121
48 74
48 99
48 100
49 50
49 101
49 105
51 52
51 118
51 89
51 130
51 132
51 134
53 54
53 55
53 56
53 57
53 64
53 81
54 55
54 56
54 57
55 56
57 78
57 64
57 81
59 60
59 126
59 127
60 84
60 87
60 88
62 96
62 109
62 110
64 65
64 66
64 67
64 68
64 81
65 66
65 67
65 68
66 67
66 68
66 91
66 95
66 112
66 113
66 137
67 68
67 78
68 91
68 95
68 112
68 113
69 90
69 116
70 76
70 123
70 124
70 125
70 136
71 72
73 74
74 99
74 100
76 77
76 123
76 124
76 125
76 99
76 107
79 80
79 81
80 81
82 83
82 86
82 88
83 84
83 86
83 88
84 87
84 88
85 86
86 88
87 88
89 90
89 130
89 132
89 134
90 116
91 92
91 94
91 95
91 97
91 98
91 112
91 113
91 114
94 95
95 112
95 113
95 114
96 109
96 110
97 98
99 100
99 107
99 124
101 102
101 103
101 105
101 114
101 115
102 103
102 106
103 112
103 119
103 120
103 121
104 105
105 114
105 115
105 121
107 108
107 124
109 110
112 113
112 119
112 120
112 121
113 120
114 115
119 120
119 121
120 121
121 135
123 124
123 125
123 128
123 129
123 130
123 131
124 125
126 127
128 129
128 130
128 131
129 130
129 131
130 131
130 132
130 134
132 133
132 134
138 139
